29 29
24
3 3 7 11
3 4 14 25
3 5 7 14
3 6 0 23
3 7 14 18
3 8 0 15
3 9 21 20
3 10 7 19
3 11 7 0
3 15 4 0
3 18 14 0
3 20 21 0
4 3 3 26
4 4 3 15
4 5 10 6
4 6 10 0
4 7 3 19
4 9 17 20
4 15 0 0
4 18 10 11
4 20 17 0
5 4 24 17
5 8 24 21
5 17 24 0
